1257496
71,56,74,85,26,68,69,30,48,10,90,90,96,103,104,98,70,46,38,13,7,27,39,67,54,77,77,107,105,41,59,11,35,64,87,6,17,49,75,72,18,61,86,95,92,12,20,47,79,16,52,99,101,53,57,21,63,22,14,73,55,102,91,3,66,78,19,62,2,82,24,43,42,84,60,29,5,94,31,50,83,58,1,80,45,93,106,15,28,51,33,100,97,34,4,0,81,44,89,23,108,9,65,76,8,36,25,40,37
